c status 13 1469274381004
c status 8 1469274381004
c status 7 1469274381004
s td 10 7 20
b 1 16 1 17 11 15
b 2 1 12 17 11 15 8 2
b 3 18 7 17 19 5
b 4 7 6 17 19 8 5 2
b 5 17 19 11 15 8 5 2
b 6 10 9 3 11 5
b 7 9 4 3 11 8 5 2
b 8 20 13 3 19 15
b 9 13 14 3 19 15 8 2
b 10 3 19 11 15 8 5 2
1 2
2 5
5 10
10 9
10 7
5 4
9 8
4 3
7 6
